DIMACS_lns/graph-1000-843.col
p edge 1000 1821
e 1 198
e 1 307
e 1 676
e 1 154
e 2 606
e 2 442
e 2 438
e 2 320
e 2 560
e 2 51
e 3 370
e 3 310
e 3 183
e 3 174
e 3 495
e 3 552
e 4 498
e 4 723
e 4 893
e 4 860
e 5 178
e 5 205
e 5 195
e 5 400
e 5 402
e 6 913
e 6 561
e 6 859
e 6 880
e 6 449
e 7 105
e 7 299
e 7 753
e 7 964
e 7 137
e 7 538
e 8 23
e 8 400
e 8 89
e 9 605
e 9 407
e 9 333
e 10 13
e 10 367
e 10 957
e 10 724
e 10 718
e 10 489
e 10 261
e 10 332
e 11 238
e 11 723
e 11 58
e 11 367
e 11 427
e 11 605
e 12 714
e 12 728
e 12 993
e 12 476
e 12 918
e 12 159
e 12 585
e 13 52
e 13 886
e 13 577
e 13 490
e 14 821
e 14 231
e 14 528
e 14 498
e 15 521
e 15 44
e 15 835
e 15 320
e 15 149
e 15 306
e 15 174
e 15 269
e 16 536
e 16 104
e 16 810
e 16 762
e 16 609
e 16 673
e 17 222
e 17 172
e 17 166
e 18 188
e 18 822
e 18 691
e 19 412
e 19 422
e 19 823
e 19 164
e 19 598
e 19 942
e 19 947
e 19 333
e 20 127
e 20 681
e 20 996
e 21 376
e 21 742
e 21 96
e 21 917
e 21 598
e 22 573
e 22 651
e 22 769
e 22 439
e 22 787
e 23 565
e 23 471
e 23 787
e 23 505
e 23 347
e 23 307
e 23 614
e 23 538
e 23 880
e 23 105
e 24 576
e 24 731
e 24 418
e 24 653
e 24 490
e 24 53
e 24 847
e 25 791
e 25 419
e 25 528
e 27 70
e 27 739
e 27 473
e 27 459
e 28 278
e 28 665
e 28 886
e 28 181
e 32 574
e 32 581
e 32 228
e 34 233
e 34 425
e 34 505
e 34 760
e 34 245
e 35 757
e 35 618
e 35 160
e 35 324
e 35 965
e 35 956
e 35 499
e 36 636
e 36 203
e 36 489
e 37 836
e 37 937
e 37 229
e 37 144
e 37 981
e 37 814
e 39 263
e 39 732
e 39 377
e 40 166
e 40 52
e 40 733
e 40 301
e 40 306
e 40 426
e 40 359
e 40 388
e 40 215
e 41 829
e 41 94
e 41 294
e 42 859
e 42 436
e 42 882
e 44 763
e 44 327
e 44 718
e 48 825
e 48 544
e 48 324
e 48 754
e 48 666
e 48 623
e 48 887
e 48 103
e 49 456
e 49 679
e 49 224
e 49 536
e 50 209
e 50 298
e 50 739
e 50 190
e 50 357
e 51 136
e 51 851
e 51 619
e 52 438
e 52 309
e 52 839
e 53 78
e 53 633
e 53 408
e 54 778
e 54 893
e 54 366
e 54 994
e 54 943
e 55 418
e 55 727
e 55 972
e 57 574
e 57 752
e 57 87
e 57 154
e 58 234
e 58 536
e 59 809
e 59 86
e 59 360
e 60 584
e 60 161
e 60 864
e 60 83
e 60 160
e 62 513
e 62 319
e 62 761
e 62 295
e 63 102
e 63 616
e 63 214
e 63 392
e 63 969
e 64 960
e 64 934
e 64 388
e 64 637
e 64 959
e 64 771
e 68 709
e 68 927
e 68 172
e 68 950
e 68 424
e 68 389
e 68 291
e 69 813
e 69 686
e 69 846
e 69 512
e 69 290
e 69 586
e 69 172
e 70 576
e 70 382
e 71 432
e 71 118
e 71 379
e 72 633
e 72 936
e 72 879
e 72 892
e 72 484
e 75 587
e 75 180
e 75 502
e 75 880
e 76 947
e 76 165
e 76 775
e 76 524
e 77 967
e 77 223
e 77 651
e 78 896
e 78 538
e 78 968
e 78 413
e 78 598
e 78 487
e 81 791
e 81 235
e 81 327
e 82 273
e 82 371
e 82 852
e 82 152
e 82 838
e 82 471
e 82 447
e 83 919
e 83 800
e 84 852
e 84 841
e 84 241
e 84 386
e 85 386
e 85 278
e 85 960
e 85 984
e 85 675
e 85 286
e 85 484
e 86 408
e 86 942
e 86 153
e 87 570
e 87 670
e 87 972
e 87 631
e 88 567
e 88 834
e 88 965
e 88 323
e 88 700
e 88 383
e 88 95
e 89 578
e 89 147
e 89 788
e 89 722
e 90 395
e 90 641
e 90 994
e 91 905
e 91 898
e 91 668
e 92 636
e 92 158
e 92 897
e 92 430
e 92 753
e 93 995
e 93 561
e 93 312
e 94 962
e 94 165
e 94 305
e 94 818
e 94 680
e 94 425
e 95 918
e 95 408
e 95 633
e 95 380
e 95 785
e 96 472
e 96 213
e 96 310
e 97 380
e 97 160
e 97 272
e 97 752
e 97 634
e 97 669
e 97 485
e 97 147
e 98 364
e 98 307
e 98 748
e 98 835
e 98 825
e 98 659
e 98 410
e 99 949
e 99 832
e 99 305
e 101 425
e 101 164
e 101 129
e 101 418
e 101 598
e 102 191
e 102 697
e 102 848
e 102 665
e 102 369
e 102 834
e 103 386
e 103 385
e 103 722
e 103 918
e 103 896
e 104 959
e 104 484
e 104 192
e 104 358
e 105 237
e 105 197
e 105 479
e 105 610
e 105 556
e 105 256
e 105 338
e 105 226
e 107 111
e 107 675
e 107 176
e 110 534
e 110 969
e 110 995
e 110 706
e 110 333
e 111 647
e 111 426
e 111 888
e 111 879
e 111 586
e 111 246
e 115 877
e 115 392
e 115 813
e 116 733
e 116 174
e 116 991
e 116 235
e 118 310
e 118 465
e 119 334
e 119 230
e 119 379
e 119 321
e 119 420
e 120 614
e 120 713
e 120 511
e 120 837
e 120 371
e 120 514
e 120 509
e 121 445
e 121 269
e 121 730
e 121 424
e 121 779
e 123 859
e 123 636
e 123 378
e 124 825
e 124 392
e 124 270
e 125 307
e 125 143
e 125 724
e 125 531
e 127 170
e 127 943
e 127 599
e 127 825
e 127 840
e 128 149
e 128 179
e 128 206
e 129 137
e 129 296
e 129 791
e 129 240
e 130 769
e 130 295
e 130 803
e 130 166
e 131 300
e 131 255
e 131 496
e 135 245
e 135 471
e 135 268
e 135 220
e 135 662
e 135 894
e 136 420
e 136 943
e 136 227
e 136 990
e 136 415
e 137 241
e 137 939
e 137 815
e 138 528
e 138 711
e 138 645
e 138 324
e 138 352
e 138 237
e 139 728
e 139 775
e 139 442
e 139 562
e 140 234
e 140 669
e 140 320
e 140 933
e 141 438
e 141 229
e 141 355
e 141 533
e 143 833
e 143 501
e 143 922
e 143 890
e 143 172
e 143 666
e 144 358
e 144 410
e 145 701
e 145 820
e 145 659
e 145 229
e 145 496
e 147 826
e 147 427
e 147 274
e 149 366
e 149 990
e 149 311
e 149 348
e 149 368
e 149 671
e 150 649
e 150 228
e 150 399
e 150 405
e 150 928
e 150 638
e 152 823
e 152 869
e 152 530
e 152 527
e 153 318
e 153 371
e 153 823
e 154 499
e 154 294
e 154 980
e 155 994
e 155 734
e 155 883
e 155 447
e 156 976
e 156 634
e 156 379
e 158 410
e 158 841
e 158 531
e 159 500
e 159 676
e 160 409
e 160 342
e 161 878
e 161 788
e 161 907
e 161 338
e 161 364
e 162 800
e 162 742
e 162 225
e 162 915
e 164 515
e 164 911
e 164 939
e 164 957
e 165 216
e 165 606
e 165 911
e 165 943
e 165 912
e 166 233
e 166 646
e 166 222
e 166 249
e 167 868
e 167 984
e 167 784
e 167 544
e 167 958
e 170 581
e 170 798
e 170 748
e 170 351
e 170 611
e 170 997
e 170 641
e 171 950
e 171 544
e 171 604
e 172 644
e 172 195
e 172 663
e 173 398
e 173 775
e 173 371
e 174 265
e 174 964
e 174 445
e 175 959
e 175 950
e 175 927
e 175 392
e 176 416
e 176 619
e 178 404
e 178 693
e 179 864
e 179 841
e 179 732
e 179 231
e 180 673
e 180 390
e 180 246
e 180 654
e 181 837
e 181 973
e 181 668
e 181 964
e 181 264
e 183 700
e 183 910
e 183 340
e 184 228
e 184 417
e 184 263
e 184 732
e 186 565
e 186 280
e 186 506
e 188 249
e 188 342
e 189 991
e 189 658
e 189 312
e 189 725
e 189 609
e 189 726
e 189 732
e 190 610
e 190 775
e 190 480
e 190 797
e 190 331
e 191 868
e 191 268
e 192 753
e 192 321
e 193 944
e 193 971
e 193 241
e 193 993
e 193 878
e 195 627
e 197 451
e 197 518
e 198 612
e 198 855
e 198 216
e 198 919
e 200 953
e 200 619
e 200 419
e 200 511
e 202 568
e 202 362
e 202 387
e 202 486
e 202 376
e 203 859
e 203 347
e 203 747
e 203 607
e 204 774
e 204 945
e 204 420
e 205 653
e 205 914
e 206 647
e 206 769
e 206 877
e 206 986
e 208 213
e 208 295
e 208 840
e 209 648
e 209 339
e 209 500
e 209 956
e 209 342
e 210 887
e 210 734
e 210 665
e 211 263
e 211 756
e 211 910
e 212 786
e 212 973
e 212 218
e 213 722
e 213 939
e 213 651
e 213 626
e 214 257
e 214 332
e 215 943
e 215 426
e 215 368
e 215 420
e 215 672
e 215 992
e 215 783
e 215 620
e 216 933
e 216 300
e 216 909
e 216 662
e 218 637
e 218 298
e 218 598
e 219 379
e 219 913
e 219 990
e 219 458
e 220 751
e 220 686
e 220 620
e 221 523
e 221 588
e 221 611
e 222 272
e 222 963
e 223 456
e 223 267
e 223 841
e 223 408
e 224 619
e 224 689
e 224 360
e 224 822
e 225 561
e 225 803
e 225 680
e 225 685
e 226 518
e 226 880
e 226 352
e 226 368
e 226 336
e 226 963
e 226 342
e 227 511
e 227 967
e 228 880
e 228 773
e 228 457
e 228 822
e 228 1000
e 228 467
e 229 450
e 229 760
e 230 763
e 230 560
e 231 613
e 231 305
e 231 968
e 231 423
e 233 273
e 233 752
e 233 544
e 234 383
e 235 461
e 235 936
e 237 274
e 237 633
e 237 335
e 237 871
e 238 974
e 238 281
e 240 521
e 240 723
e 241 361
e 241 758
e 241 249
e 243 815
e 243 629
e 243 716
e 243 524
e 244 633
e 244 799
e 244 462
e 245 697
e 245 415
e 245 267
e 245 522
e 246 348
e 246 860
e 249 821
e 249 391
e 249 366
e 250 807
e 250 905
e 250 556
e 250 995
e 250 311
e 251 980
e 251 751
e 251 959
e 253 638
e 253 966
e 253 980
e 253 308
e 254 754
e 254 259
e 254 389
e 254 746
e 254 573
e 255 785
e 255 975
e 256 755
e 256 518
e 256 464
e 256 967
e 257 945
e 257 747
e 259 821
e 259 570
e 259 671
e 259 587
e 260 562
e 260 788
e 260 809
e 260 485
e 260 310
e 260 626
e 261 752
e 261 464
e 261 615
e 261 789
e 262 568
e 262 357
e 262 993
e 262 264
e 263 632
e 263 457
e 263 394
e 263 359
e 263 900
e 264 965
e 265 300
e 265 631
e 265 687
e 266 572
e 266 775
e 266 823
e 266 551
e 267 563
e 267 575
e 267 600
e 268 598
e 269 349
e 269 484
e 270 843
e 270 663
e 270 445
e 270 944
e 272 458
e 272 518
e 273 537
e 273 994
e 273 336
e 273 556
e 273 986
e 274 506
e 274 670
e 274 486
e 274 385
e 274 556
e 278 324
e 278 687
e 278 388
e 280 909
e 280 619
e 281 628
e 281 634
e 281 732
e 281 664
e 283 705
e 283 298
e 283 306
e 283 392
e 283 404
e 283 912
e 286 670
e 286 722
e 287 959
e 287 319
e 287 565
e 290 298
e 290 890
e 290 722
e 290 707
e 290 966
e 291 664
e 291 404
e 291 436
e 291 627
e 291 619
e 294 648
e 294 509
e 294 348
e 294 512
e 295 709
e 296 426
e 296 351
e 296 711
e 296 699
e 296 501
e 296 890
e 297 511
e 297 740
e 297 645
e 297 711
e 298 689
e 298 486
e 298 989
e 299 661
e 299 944
e 299 396
e 299 778
e 300 882
e 300 850
e 300 380
e 300 789
e 300 963
e 301 378
e 301 965
e 302 615
e 302 744
e 302 466
e 302 743
e 302 928
e 302 888
e 303 362
e 303 360
e 303 366
e 303 872
e 303 842
e 304 511
e 304 774
e 304 901
e 304 926
e 305 385
e 305 613
e 306 876
e 306 537
e 306 687
e 306 346
e 307 499
e 307 693
e 307 581
e 308 716
e 308 754
e 308 736
e 308 814
e 308 899
e 308 997
e 309 616
e 309 560
e 310 903
e 310 509
e 311 705
e 312 886
e 313 785
e 313 935
e 313 367
e 316 451
e 316 975
e 316 467
e 316 661
e 317 366
e 317 561
e 317 728
e 318 787
e 318 392
e 318 634
e 318 846
e 318 976
e 319 396
e 319 623
e 320 445
e 320 577
e 321 773
e 322 733
e 322 874
e 322 355
e 322 684
e 322 915
e 322 436
e 322 398
e 322 744
e 323 417
e 323 900
e 323 933
e 324 832
e 324 794
e 327 533
e 327 408
e 327 756
e 327 454
e 331 998
e 331 409
e 332 479
e 332 928
e 333 762
e 334 422
e 334 363
e 334 618
e 334 951
e 335 857
e 335 690
e 335 869
e 335 706
e 336 855
e 336 402
e 338 438
e 339 442
e 339 632
e 340 875
e 340 672
e 341 485
e 341 814
e 341 687
e 341 701
e 342 461
e 342 848
e 343 638
e 343 732
e 343 784
e 343 649
e 343 995
e 343 984
e 343 679
e 343 449
e 344 473
e 344 411
e 344 574
e 344 432
e 344 727
e 344 699
e 346 521
e 346 355
e 346 932
e 346 797
e 347 779
e 347 741
e 348 645
e 348 568
e 348 531
e 349 572
e 349 883
e 349 689
e 349 660
e 349 488
e 349 897
e 349 997
e 349 359
e 351 875
e 351 882
e 352 383
e 352 446
e 352 697
e 354 964
e 354 998
e 354 995
e 355 375
e 355 800
e 355 964
e 355 583
e 357 705
e 357 780
e 357 574
e 357 691
e 358 734
e 358 458
e 358 700
e 358 719
e 358 743
e 359 608
e 359 948
e 359 646
e 359 554
e 360 377
e 360 627
e 361 967
e 361 928
e 362 363
e 363 754
e 364 666
e 364 957
e 364 775
e 364 883
e 364 435
e 364 595
e 366 529
e 366 629
e 367 919
e 368 497
e 369 536
e 369 755
e 369 843
e 369 459
e 370 661
e 370 724
e 370 572
e 371 651
e 371 394
e 371 927
e 371 869
e 373 630
e 373 628
e 373 618
e 373 387
e 373 833
e 373 385
e 375 658
e 375 442
e 375 975
e 376 426
e 376 393
e 377 866
e 377 670
e 378 501
e 378 784
e 379 706
e 380 518
e 382 484
e 382 485
e 382 770
e 383 741
e 383 972
e 383 480
e 383 613
e 383 412
e 383 562
e 385 481
e 385 905
e 386 617
e 386 835
e 386 632
e 386 493
e 387 971
e 388 613
e 388 874
e 388 797
e 388 764
e 388 685
e 389 432
e 390 644
e 390 654
e 390 829
e 390 417
e 391 633
e 391 885
e 391 969
e 391 447
e 393 868
e 393 991
e 393 887
e 394 856
e 394 554
e 395 982
e 395 624
e 395 577
e 396 560
e 396 513
e 396 464
e 396 965
e 396 991
e 398 499
e 398 496
e 398 632
e 398 989
e 399 953
e 399 758
e 399 746
e 399 536
e 399 960
e 399 628
e 399 725
e 400 658
e 400 757
e 400 948
e 400 885
e 402 447
e 402 584
e 404 854
e 404 758
e 404 410
e 404 587
e 404 646
e 404 596
e 405 553
e 405 574
e 407 800
e 407 620
e 407 771
e 408 690
e 408 820
e 408 724
e 409 443
e 409 490
e 410 659
e 410 464
e 410 604
e 410 412
e 411 691
e 411 790
e 411 486
e 412 459
e 412 859
e 413 994
e 413 466
e 413 886
e 415 621
e 415 416
e 415 706
e 415 696
e 416 797
e 416 565
e 417 649
e 417 936
e 417 746
e 417 906
e 417 450
e 419 734
e 419 810
e 419 675
e 420 444
e 420 712
e 422 471
e 422 641
e 423 610
e 423 859
e 423 637
e 423 620
e 423 557
e 424 630
e 424 810
e 425 692
e 426 856
e 427 488
e 430 797
e 430 573
e 430 745
e 431 810
e 431 449
e 431 509
e 432 729
e 433 462
e 433 813
e 433 1000
e 433 583
e 433 961
e 433 693
e 435 699
e 435 522
e 436 924
e 436 745
e 439 666
e 439 718
e 442 617
e 442 746
e 442 446
e 443 513
e 443 610
e 443 604
e 443 712
e 444 754
e 444 651
e 444 659
e 444 696
e 445 589
e 445 760
e 445 552
e 445 963
e 446 576
e 446 726
e 446 725
e 447 857
e 447 786
e 449 660
e 449 580
e 450 675
e 450 726
e 450 836
e 450 489
e 451 886
e 451 685
e 453 847
e 453 906
e 453 917
e 453 810
e 454 611
e 454 638
e 456 917
e 456 544
e 456 789
e 457 692
e 457 991
e 457 877
e 458 632
e 459 949
e 459 621
e 459 947
e 461 787
e 462 612
e 462 741
e 464 920
e 464 975
e 464 765
e 465 961
e 465 744
e 465 1000
e 465 830
e 466 489
e 467 486
e 467 922
e 471 524
e 471 774
e 471 989
e 471 709
e 472 851
e 472 893
e 473 497
e 473 962
e 476 774
e 476 968
e 476 547
e 477 530
e 477 701
e 477 994
e 479 670
e 479 570
e 479 755
e 479 857
e 479 534
e 480 561
e 480 626
e 480 991
e 480 663
e 480 909
e 481 917
e 481 555
e 481 986
e 481 513
e 481 814
e 482 653
e 482 716
e 482 907
e 482 788
e 482 723
e 484 498
e 484 624
e 485 936
e 485 897
e 485 574
e 485 599
e 485 840
e 485 662
e 485 885
e 486 547
e 486 836
e 487 494
e 487 648
e 488 640
e 489 727
e 489 894
e 490 553
e 490 842
e 493 996
e 493 722
e 493 620
e 493 648
e 493 905
e 493 562
e 494 550
e 494 685
e 494 753
e 495 586
e 495 732
e 496 869
e 496 509
e 497 758
e 498 668
e 498 649
e 498 530
e 499 840
e 499 742
e 500 734
e 501 686
e 502 633
e 502 617
e 502 537
e 504 897
e 504 721
e 504 925
e 505 856
e 505 955
e 505 736
e 506 556
e 506 665
e 506 706
e 506 798
e 509 641
e 511 836
e 511 798
e 512 879
e 512 580
e 512 693
e 514 762
e 514 870
e 514 880
e 515 581
e 515 747
e 518 937
e 521 906
e 521 694
e 521 578
e 522 612
e 523 574
e 523 771
e 523 956
e 524 927
e 524 638
e 524 784
e 527 826
e 527 892
e 528 719
e 529 797
e 529 611
e 532 898
e 532 981
e 532 847
e 532 996
e 533 621
e 534 800
e 534 645
e 536 915
e 537 751
e 537 864
e 537 822
e 538 607
e 542 611
e 542 989
e 542 556
e 542 699
e 544 833
e 547 741
e 548 920
e 548 851
e 548 794
e 548 685
e 550 859
e 550 952
e 550 905
e 551 623
e 551 814
e 552 757
e 552 629
e 552 890
e 553 719
e 553 689
e 553 841
e 554 654
e 554 712
e 555 950
e 555 563
e 555 567
e 557 956
e 557 791
e 557 957
e 560 926
e 560 640
e 560 846
e 561 872
e 562 723
e 562 807
e 563 880
e 563 972
e 565 832
e 567 779
e 568 876
e 570 841
e 572 681
e 572 718
e 572 595
e 574 631
e 574 829
e 575 870
e 575 836
e 575 587
e 577 952
e 578 780
e 580 807
e 583 671
e 583 903
e 584 707
e 585 626
e 585 690
e 585 987
e 585 631
e 585 647
e 586 778
e 586 952
e 586 744
e 587 899
e 588 868
e 588 755
e 589 615
e 589 609
e 589 752
e 591 906
e 591 854
e 591 949
e 595 803
e 595 649
e 595 869
e 596 961
e 596 752
e 596 790
e 599 911
e 599 962
e 599 736
e 599 640
e 600 791
e 600 869
e 604 676
e 605 765
e 606 850
e 606 890
e 606 740
e 607 626
e 608 784
e 608 619
e 609 711
e 609 694
e 610 813
e 610 907
e 610 834
e 611 669
e 611 961
e 611 967
e 611 779
e 612 735
e 613 757
e 613 900
e 613 913
e 614 632
e 615 832
e 615 829
e 616 701
e 617 888
e 617 658
e 617 972
e 619 949
e 619 935
e 620 984
e 620 872
e 620 706
e 623 787
e 624 633
e 624 966
e 624 890
e 626 779
e 627 900
e 628 679
e 629 649
e 629 744
e 629 733
e 630 783
e 630 829
e 631 685
e 632 821
e 633 992
e 633 778
e 633 901
e 633 671
e 636 976
e 636 932
e 637 919
e 640 760
e 640 771
e 642 906
e 642 775
e 642 729
e 644 909
e 644 997
e 645 647
e 645 950
e 646 813
e 646 673
e 646 676
e 649 789
e 649 840
e 653 989
e 660 693
e 661 856
e 662 961
e 663 934
e 664 850
e 664 786
e 665 924
e 668 727
e 668 799
e 668 897
e 668 973
e 668 958
e 669 834
e 670 771
e 671 898
e 672 775
e 672 679
e 675 887
e 675 788
e 679 918
e 679 711
e 680 684
e 681 961
e 684 813
e 685 700
e 685 834
e 685 953
e 686 911
e 690 701
e 691 775
e 691 974
e 692 927
e 692 996
e 692 739
e 692 907
e 692 775
e 694 753
e 694 809
e 694 912
e 694 713
e 696 784
e 697 726
e 699 957
e 701 852
e 704 896
e 704 844
e 704 1000
e 705 719
e 706 867
e 706 794
e 706 914
e 706 711
e 707 733
e 707 951
e 709 961
e 709 809
e 712 749
e 713 903
e 714 876
e 714 887
e 716 822
e 719 773
e 719 769
e 721 726
e 721 942
e 721 924
e 721 918
e 722 803
e 722 911
e 722 731
e 724 932
e 725 907
e 725 818
e 725 809
e 726 765
e 727 740
e 728 925
e 728 730
e 729 926
e 730 844
e 730 945
e 731 752
e 732 778
e 734 989
e 734 756
e 735 753
e 735 780
e 742 899
e 743 838
e 743 839
e 743 885
e 744 906
e 744 773
e 744 765
e 745 749
e 746 844
e 747 748
e 748 992
e 748 854
e 749 984
e 756 820
e 756 898
e 758 784
e 761 894
e 761 966
e 762 920
e 763 937
e 763 879
e 764 830
e 764 899
e 764 892
e 765 815
e 769 773
e 770 922
e 770 950
e 774 942
e 774 867
e 775 814
e 778 844
e 778 882
e 779 872
e 779 968
e 779 792
e 780 964
e 780 823
e 783 901
e 784 896
e 784 889
e 786 933
e 786 823
e 787 864
e 787 955
e 788 919
e 788 976
e 790 968
e 792 870
e 792 830
e 792 854
e 794 841
e 794 942
e 799 809
e 803 807
e 803 984
e 813 949
e 818 951
e 820 997
e 821 918
e 821 974
e 826 841
e 826 909
e 826 854
e 830 868
e 830 894
e 833 895
e 837 879
e 838 857
e 838 844
e 839 910
e 840 848
e 841 890
e 842 889
e 843 878
e 846 925
e 846 911
e 847 870
e 852 854
e 854 855
e 855 874
e 860 944
e 866 932
e 866 882
e 867 943
e 869 947
e 870 955
e 871 912
e 871 890
e 872 982
e 874 889
e 874 948
e 875 974
e 875 927
e 878 992
e 882 961
e 889 966
e 892 1000
e 892 914
e 893 981
e 893 997
e 894 987
e 894 913
e 894 957
e 895 919
e 895 971
e 895 925
e 895 899
e 900 998
e 903 958
e 910 987
e 914 982
e 915 972
e 932 986
e 934 996
e 935 962
e 936 949
e 937 991
e 944 996
e 945 959
e 947 975
e 950 996
e 960 987
e 995 1000
